s td 36 5 40
b 1 1 2 11
b 2 9 10 20
b 3 21 31 32
b 4 30 39 40
b 5 2 3 11 12
b 6 8 9 19 20
b 7 3 4 14 25 36
b 8 4 5 14 25 36
b 9 5 14 16 25 36
b 10 5 16 25 27 36
b 11 5 16 27 36 38
b 12 5 7 16 27 38
b 13 5 6 7 16
b 14 7 16 18 27 38
b 15 7 18 27 29 38
b 16 7 18 20 29 38
b 17 7 18 19 20 29
b 18 7 8 18 19 20
b 19 20 29 30 38
b 20 18 27 28 29 38
b 21 7 16 17 18 27
b 22 27 36 37 38
b 23 16 25 26 27 36
b 24 5 14 15 16 25
b 25 3 14 25 34 36
b 26 3 14 23 25 34
b 27 3 12 14 23 34
b 28 3 12 21 23 34
b 29 3 11 12 21
b 30 12 21 23 33 34
b 31 12 21 22 23 33
b 32 3 12 13 14 23
b 33 14 23 24 25 34
b 34 25 34 35 36
b 35 21 22 32 33
b 36 29 30 38 39
1 5
2 6
3 35
4 36
5 29
6 18
7 8
7 25
8 9
9 10
9 24
10 11
10 23
11 12
11 22
12 13
12 14
14 15
14 21
15 16
15 20
16 17
16 19
17 18
19 36
25 26
25 34
26 27
26 33
27 28
27 32
28 29
28 30
30 31
31 35
